data;

set INIMIGOS := homens mulheres;
set VENENOS := alfa beta;

param eliminar :=
    homens        30
    mulheres      85;

param disponibilidade :=
    alfa      900
    beta      200;

param proporcao :=
    alfa      5
    beta      1;

end;